WARNING: for repeatability, setting FPU to use double precision
 -----------------------------------------------------------------------------------------------------------------------
|                                 manysat2.0    4 thread(s) on 8 core(s)                                                |
 -----------------------------------------------------------------------------------------------------------------------
 ===============================================[ Problem Statistics ]==================================================
|                                                                                                                       |
|  Number of cores:                 4                                                                                   |
|  Number of variables:           600                                                                                   |
|  Number of clauses:           27224                                                                                   |
|  Parse time:                   0.05 s                                                                                 |
|                                                                                                                       |
 ==============================================[ Search Statistics ]====================================================
|   Thread  | Conflicts |          ORIGINAL         |          LEARNT          |  exported  / imported      |  Progress |
|    (id)   |           |    Vars  Clauses Literals |    Limit  Clauses Lit/Cl |  (clauses by restart)      |           |
 =======================================================================================================================
 =======================================================================================================================
 -----------------------------------------------------------------------------------------------------------------------
| ManySAT 2.2 - all threads statistics           DETERMINISTIC MODE ? N              initial limit export clauses :  10 |
|-----------------------------------------------------------------------------------------------------------------------|
|  Thread  | winner  |   #restarts   |   decisions   |  #conflicts   |   % shared cls  |  #extra units | #extra clauses |         
|----------|---------|---------------|---------------|---------------|-----------------|---------------|----------------|
|        0 |       x |             1 |            11 |             0 |             0 % |             0 |              0 |
|        1 |         |             1 |            16 |             0 |             0 % |             0 |              0 |
|        2 |         |             1 |            16 |             0 |             0 % |             0 |              0 |
|        3 |         |             1 |            17 |             0 |             0 % |             0 |              0 |
|----------------------------------------------------|---------------|-----------------|---------------|----------------|
|                                                    |             0 |             0 % |             0 |              0 |
 -----------------------------------------------------------------------------------------------------------------------
 DETERMINISTIC_MODE? : NO 
 CONTROL POLICY?	 : STATIC (fixed Limit Export Clauses)  
 LIMIT EXPORT CLAUSES (PAIRWISE) : [identity] x 10

  ----------------------------------------         
   winner:  more statistics           
  ----------------------------------------         
  restarts              : 1
  conflicts             : 0              (0 /sec)
  decisions             : 11             (0.00 % random) (196 /sec)
  propagations          : 600            (10714 /sec)
  conflict literals     : 0              (-nan % deleted)
  Memory used           : 449.00 MB
  CPU time              : 0.056003 s

SATISFIABLE
WARNING: for repeatability, setting FPU to use double precision
 -----------------------------------------------------------------------------------------------------------------------
|                                 manysat2.0    4 thread(s) on 8 core(s)                                                |
 -----------------------------------------------------------------------------------------------------------------------
 ===============================================[ Problem Statistics ]==================================================
|                                                                                                                       |
|  Number of cores:                 4                                                                                   |
|  Number of variables:           600                                                                                   |
|  Number of clauses:           27224                                                                                   |
|  Parse time:                   0.03 s                                                                                 |
|                                                                                                                       |
 ==============================================[ Search Statistics ]====================================================
|   Thread  | Conflicts |          ORIGINAL         |          LEARNT          |  exported  / imported      |  Progress |
|    (id)   |           |    Vars  Clauses Literals |    Limit  Clauses Lit/Cl |  (clauses by restart)      |           |
 =======================================================================================================================
 =======================================================================================================================
 -----------------------------------------------------------------------------------------------------------------------
| ManySAT 2.2 - all threads statistics           DETERMINISTIC MODE ? N              initial limit export clauses :   1 |
|-----------------------------------------------------------------------------------------------------------------------|
|  Thread  | winner  |   #restarts   |   decisions   |  #conflicts   |   % shared cls  |  #extra units | #extra clauses |         
|----------|---------|---------------|---------------|---------------|-----------------|---------------|----------------|
|        0 |       x |             1 |            11 |             0 |             0 % |             0 |              0 |
|        1 |         |             1 |            16 |             0 |             0 % |             0 |              0 |
|        2 |         |             1 |            16 |             0 |             0 % |             0 |              0 |
|        3 |         |             1 |            17 |             0 |             0 % |             0 |              0 |
|----------------------------------------------------|---------------|-----------------|---------------|----------------|
|                                                    |             0 |             0 % |             0 |              0 |
 -----------------------------------------------------------------------------------------------------------------------
 DETERMINISTIC_MODE? : NO 
 CONTROL POLICY?	 : STATIC (fixed Limit Export Clauses)  
 LIMIT EXPORT CLAUSES (PAIRWISE) : [identity] x 1

  ----------------------------------------         
   winner:  more statistics           
  ----------------------------------------         
  restarts              : 1
  conflicts             : 0              (0 /sec)
  decisions             : 11             (0.00 % random) (250 /sec)
  propagations          : 600            (13636 /sec)
  conflict literals     : 0              (-nan % deleted)
  Memory used           : 411.00 MB
  CPU time              : 0.044002 s

SATISFIABLE
WARNING: for repeatability, setting FPU to use double precision
 -----------------------------------------------------------------------------------------------------------------------
|                                 manysat2.0    4 thread(s) on 8 core(s)                                                |
 -----------------------------------------------------------------------------------------------------------------------
 ===============================================[ Problem Statistics ]==================================================
|                                                                                                                       |
|  Number of cores:                 4                                                                                   |
|  Number of variables:           600                                                                                   |
|  Number of clauses:           27224                                                                                   |
|  Parse time:                   0.04 s                                                                                 |
|                                                                                                                       |
 ==============================================[ Search Statistics ]====================================================
|   Thread  | Conflicts |          ORIGINAL         |          LEARNT          |  exported  / imported      |  Progress |
|    (id)   |           |    Vars  Clauses Literals |    Limit  Clauses Lit/Cl |  (clauses by restart)      |           |
 =======================================================================================================================
 =======================================================================================================================
 -----------------------------------------------------------------------------------------------------------------------
| ManySAT 2.2 - all threads statistics           DETERMINISTIC MODE ? N              initial limit export clauses :  20 |
|-----------------------------------------------------------------------------------------------------------------------|
|  Thread  | winner  |   #restarts   |   decisions   |  #conflicts   |   % shared cls  |  #extra units | #extra clauses |         
|----------|---------|---------------|---------------|---------------|-----------------|---------------|----------------|
|        0 |       x |             1 |            11 |             0 |             0 % |             0 |              0 |
|        1 |         |             1 |            16 |             0 |             0 % |             0 |              0 |
|        2 |         |             1 |            16 |             0 |             0 % |             0 |              0 |
|        3 |         |             1 |            17 |             0 |             0 % |             0 |              0 |
|----------------------------------------------------|---------------|-----------------|---------------|----------------|
|                                                    |             0 |             0 % |             0 |              0 |
 -----------------------------------------------------------------------------------------------------------------------
 DETERMINISTIC_MODE? : NO 
 CONTROL POLICY?	 : STATIC (fixed Limit Export Clauses)  
 LIMIT EXPORT CLAUSES (PAIRWISE) : [identity] x 20

  ----------------------------------------         
   winner:  more statistics           
  ----------------------------------------         
  restarts              : 1
  conflicts             : 0              (0 /sec)
  decisions             : 11             (0.00 % random) (229 /sec)
  propagations          : 600            (12499 /sec)
  conflict literals     : 0              (-nan % deleted)
  Memory used           : 394.00 MB
  CPU time              : 0.048003 s

SATISFIABLE
WARNING: for repeatability, setting FPU to use double precision
 -----------------------------------------------------------------------------------------------------------------------
|                                 manysat2.0    4 thread(s) on 8 core(s)                                                |
 -----------------------------------------------------------------------------------------------------------------------
 ===============================================[ Problem Statistics ]==================================================
|                                                                                                                       |
|  Number of cores:                 4                                                                                   |
|  Number of variables:           600                                                                                   |
|  Number of clauses:           27224                                                                                   |
|  Parse time:                   0.05 s                                                                                 |
|                                                                                                                       |
 ==============================================[ Search Statistics ]====================================================
|   Thread  | Conflicts |          ORIGINAL         |          LEARNT          |  exported  / imported      |  Progress |
|    (id)   |           |    Vars  Clauses Literals |    Limit  Clauses Lit/Cl |  (clauses by restart)      |           |
 =======================================================================================================================
 =======================================================================================================================
 -----------------------------------------------------------------------------------------------------------------------
| ManySAT 2.2 - all threads statistics           DETERMINISTIC MODE ? N              initial limit export clauses :   5 |
|-----------------------------------------------------------------------------------------------------------------------|
|  Thread  | winner  |   #restarts   |   decisions   |  #conflicts   |   % shared cls  |  #extra units | #extra clauses |         
|----------|---------|---------------|---------------|---------------|-----------------|---------------|----------------|
|        0 |       x |             1 |            11 |             0 |             0 % |             0 |              0 |
|        1 |         |             1 |            16 |             0 |             0 % |             0 |              0 |
|        2 |         |             1 |            16 |             0 |             0 % |             0 |              0 |
|        3 |         |             1 |            17 |             0 |             0 % |             0 |              0 |
|----------------------------------------------------|---------------|-----------------|---------------|----------------|
|                                                    |             0 |             0 % |             0 |              0 |
 -----------------------------------------------------------------------------------------------------------------------
 DETERMINISTIC_MODE? : NO 
 CONTROL POLICY?	 : STATIC (fixed Limit Export Clauses)  
 LIMIT EXPORT CLAUSES (PAIRWISE) : [identity] x 5

  ----------------------------------------         
   winner:  more statistics           
  ----------------------------------------         
  restarts              : 1
  conflicts             : 0              (0 /sec)
  decisions             : 11             (0.00 % random) (172 /sec)
  propagations          : 600            (9374 /sec)
  conflict literals     : 0              (-nan % deleted)
  Memory used           : 449.00 MB
  CPU time              : 0.064004 s

SATISFIABLE
WARNING: for repeatability, setting FPU to use double precision
 -----------------------------------------------------------------------------------------------------------------------
|                                 manysat2.0    8 thread(s) on 8 core(s)                                                |
 -----------------------------------------------------------------------------------------------------------------------
ERROR! Could not open file: /home/sat/sc14-app/complete-300-0.1-4-9876543213004.cnf
WARNING: for repeatability, setting FPU to use double precision
 -----------------------------------------------------------------------------------------------------------------------
|                                 manysat2.0    8 thread(s) on 8 core(s)                                                |
 -----------------------------------------------------------------------------------------------------------------------
ERROR! Could not open file: /home/sat/sc14-app/complete-300-0.1-4-9876543213004.cnf
WARNING: for repeatability, setting FPU to use double precision
 -----------------------------------------------------------------------------------------------------------------------
|                                 manysat2.0    8 thread(s) on 8 core(s)                                                |
 -----------------------------------------------------------------------------------------------------------------------
ERROR! Could not open file: /home/sat/sc14-app/complete-300-0.1-4-9876543213004.cnf
WARNING: for repeatability, setting FPU to use double precision
 -----------------------------------------------------------------------------------------------------------------------
|                                 manysat2.0    8 thread(s) on 8 core(s)                                                |
 -----------------------------------------------------------------------------------------------------------------------
 ===============================================[ Problem Statistics ]==================================================
|                                                                                                                       |
|  Number of cores:                 8                                                                                   |
|  Number of variables:           600                                                                                   |
|  Number of clauses:           27224                                                                                   |
|  Parse time:                   0.05 s                                                                                 |
|                                                                                                                       |
 ==============================================[ Search Statistics ]====================================================
|   Thread  | Conflicts |          ORIGINAL         |          LEARNT          |  exported  / imported      |  Progress |
|    (id)   |           |    Vars  Clauses Literals |    Limit  Clauses Lit/Cl |  (clauses by restart)      |           |
 =======================================================================================================================
 =======================================================================================================================
 -----------------------------------------------------------------------------------------------------------------------
| ManySAT 2.2 - all threads statistics           DETERMINISTIC MODE ? N              initial limit export clauses :  10 |
|-----------------------------------------------------------------------------------------------------------------------|
|  Thread  | winner  |   #restarts   |   decisions   |  #conflicts   |   % shared cls  |  #extra units | #extra clauses |         
|----------|---------|---------------|---------------|---------------|-----------------|---------------|----------------|
|        0 |       x |             1 |            11 |             0 |             0 % |             0 |              0 |
|        1 |         |             1 |            16 |             0 |             0 % |             0 |              0 |
|        2 |         |             1 |            16 |             0 |             0 % |             0 |              0 |
|        3 |         |             1 |            17 |             0 |             0 % |             0 |              0 |
|        4 |         |             1 |            12 |             0 |             0 % |             0 |              0 |
|        5 |         |             1 |            15 |             0 |             0 % |             0 |              0 |
|        6 |         |             1 |            18 |             0 |             0 % |             0 |              0 |
|        7 |         |             1 |            14 |             0 |             0 % |             0 |              0 |
|----------------------------------------------------|---------------|-----------------|---------------|----------------|
|                                                    |             0 |             0 % |             0 |              0 |
 -----------------------------------------------------------------------------------------------------------------------
 DETERMINISTIC_MODE? : NO 
 CONTROL POLICY?	 : STATIC (fixed Limit Export Clauses)  
 LIMIT EXPORT CLAUSES (PAIRWISE) : [identity] x 10

  ----------------------------------------         
   winner:  more statistics           
  ----------------------------------------         
  restarts              : 1
  conflicts             : 0              (0 /sec)
  decisions             : 11             (0.00 % random) (131 /sec)
  propagations          : 600            (7142 /sec)
  conflict literals     : 0              (-nan % deleted)
  Memory used           : 1014.00 MB
  CPU time              : 0.084005 s

SATISFIABLE
WARNING: for repeatability, setting FPU to use double precision
 -----------------------------------------------------------------------------------------------------------------------
|                                 manysat2.0    8 thread(s) on 8 core(s)                                                |
 -----------------------------------------------------------------------------------------------------------------------
 ===============================================[ Problem Statistics ]==================================================
|                                                                                                                       |
|  Number of cores:                 8                                                                                   |
|  Number of variables:           600                                                                                   |
|  Number of clauses:           27224                                                                                   |
|  Parse time:                   0.05 s                                                                                 |
|                                                                                                                       |
 ==============================================[ Search Statistics ]====================================================
|   Thread  | Conflicts |          ORIGINAL         |          LEARNT          |  exported  / imported      |  Progress |
|    (id)   |           |    Vars  Clauses Literals |    Limit  Clauses Lit/Cl |  (clauses by restart)      |           |
 =======================================================================================================================
 =======================================================================================================================
 -----------------------------------------------------------------------------------------------------------------------
| ManySAT 2.2 - all threads statistics           DETERMINISTIC MODE ? N              initial limit export clauses :  20 |
|-----------------------------------------------------------------------------------------------------------------------|
|  Thread  | winner  |   #restarts   |   decisions   |  #conflicts   |   % shared cls  |  #extra units | #extra clauses |         
|----------|---------|---------------|---------------|---------------|-----------------|---------------|----------------|
|        0 |       x |             1 |            11 |             0 |             0 % |             0 |              0 |
|        1 |         |             1 |            16 |             0 |             0 % |             0 |              0 |
|        2 |         |             1 |            16 |             0 |             0 % |             0 |              0 |
|        3 |         |             1 |            17 |             0 |             0 % |             0 |              0 |
|        4 |         |             1 |            12 |             0 |             0 % |             0 |              0 |
|        5 |         |             1 |            15 |             0 |             0 % |             0 |              0 |
|        6 |         |             1 |            18 |             0 |             0 % |             0 |              0 |
|        7 |         |             1 |            14 |             0 |             0 % |             0 |              0 |
|----------------------------------------------------|---------------|-----------------|---------------|----------------|
|                                                    |             0 |             0 % |             0 |              0 |
 -----------------------------------------------------------------------------------------------------------------------
 DETERMINISTIC_MODE? : NO 
 CONTROL POLICY?	 : STATIC (fixed Limit Export Clauses)  
 LIMIT EXPORT CLAUSES (PAIRWISE) : [identity] x 20

  ----------------------------------------         
   winner:  more statistics           
  ----------------------------------------         
  restarts              : 1
  conflicts             : 0              (0 /sec)
  decisions             : 11             (0.00 % random) (102 /sec)
  propagations          : 600            (5555 /sec)
  conflict literals     : 0              (-nan % deleted)
  Memory used           : 957.00 MB
  CPU time              : 0.108006 s

SATISFIABLE
WARNING: for repeatability, setting FPU to use double precision
 -----------------------------------------------------------------------------------------------------------------------
|                                 manysat2.0    8 thread(s) on 8 core(s)                                                |
 -----------------------------------------------------------------------------------------------------------------------
 ===============================================[ Problem Statistics ]==================================================
|                                                                                                                       |
|  Number of cores:                 8                                                                                   |
|  Number of variables:           600                                                                                   |
|  Number of clauses:           27224                                                                                   |
|  Parse time:                   0.08 s                                                                                 |
|                                                                                                                       |
 ==============================================[ Search Statistics ]====================================================
|   Thread  | Conflicts |          ORIGINAL         |          LEARNT          |  exported  / imported      |  Progress |
|    (id)   |           |    Vars  Clauses Literals |    Limit  Clauses Lit/Cl |  (clauses by restart)      |           |
 =======================================================================================================================
 =======================================================================================================================
 -----------------------------------------------------------------------------------------------------------------------
| ManySAT 2.2 - all threads statistics           DETERMINISTIC MODE ? N              initial limit export clauses :  25 |
|-----------------------------------------------------------------------------------------------------------------------|
|  Thread  | winner  |   #restarts   |   decisions   |  #conflicts   |   % shared cls  |  #extra units | #extra clauses |         
|----------|---------|---------------|---------------|---------------|-----------------|---------------|----------------|
|        0 |       x |             1 |            11 |             0 |             0 % |             0 |              0 |
|        1 |         |             1 |            16 |             0 |             0 % |             0 |              0 |
|        2 |         |             1 |            16 |             0 |             0 % |             0 |              0 |
|        3 |         |             1 |            17 |             0 |             0 % |             0 |              0 |
|        4 |         |             1 |            12 |             0 |             0 % |             0 |              0 |
|        5 |         |             1 |            15 |             0 |             0 % |             0 |              0 |
|        6 |         |             1 |            18 |             0 |             0 % |             0 |              0 |
|        7 |         |             1 |            14 |             0 |             0 % |             0 |              0 |
|----------------------------------------------------|---------------|-----------------|---------------|----------------|
|                                                    |             0 |             0 % |             0 |              0 |
 -----------------------------------------------------------------------------------------------------------------------
 DETERMINISTIC_MODE? : NO 
 CONTROL POLICY?	 : STATIC (fixed Limit Export Clauses)  
 LIMIT EXPORT CLAUSES (PAIRWISE) : [identity] x 25

  ----------------------------------------         
   winner:  more statistics           
  ----------------------------------------         
  restarts              : 1
  conflicts             : 0              (0 /sec)
  decisions             : 11             (0.00 % random) (86 /sec)
  propagations          : 600            (4687 /sec)
  conflict literals     : 0              (-nan % deleted)
  Memory used           : 995.00 MB
  CPU time              : 0.128008 s

SATISFIABLE
WARNING: for repeatability, setting FPU to use double precision
 -----------------------------------------------------------------------------------------------------------------------
|                                 manysat2.0    8 thread(s) on 8 core(s)                                                |
 -----------------------------------------------------------------------------------------------------------------------
 ===============================================[ Problem Statistics ]==================================================
|                                                                                                                       |
|  Number of cores:                 8                                                                                   |
|  Number of variables:           600                                                                                   |
|  Number of clauses:           27224                                                                                   |
|  Parse time:                   0.06 s                                                                                 |
|                                                                                                                       |
 ==============================================[ Search Statistics ]====================================================
|   Thread  | Conflicts |          ORIGINAL         |          LEARNT          |  exported  / imported      |  Progress |
|    (id)   |           |    Vars  Clauses Literals |    Limit  Clauses Lit/Cl |  (clauses by restart)      |           |
 =======================================================================================================================
 =======================================================================================================================
 -----------------------------------------------------------------------------------------------------------------------
| ManySAT 2.2 - all threads statistics           DETERMINISTIC MODE ? N              initial limit export clauses :  50 |
|-----------------------------------------------------------------------------------------------------------------------|
|  Thread  | winner  |   #restarts   |   decisions   |  #conflicts   |   % shared cls  |  #extra units | #extra clauses |         
|----------|---------|---------------|---------------|---------------|-----------------|---------------|----------------|
|        0 |       x |             1 |            11 |             0 |             0 % |             0 |              0 |
|        1 |         |             1 |            16 |             0 |             0 % |             0 |              0 |
|        2 |         |             1 |            16 |             0 |             0 % |             0 |              0 |
|        3 |         |             1 |            17 |             0 |             0 % |             0 |              0 |
|        4 |         |             1 |            12 |             0 |             0 % |             0 |              0 |
|        5 |         |             1 |            15 |             0 |             0 % |             0 |              0 |
|        6 |         |             1 |            18 |             0 |             0 % |             0 |              0 |
|        7 |         |             1 |            14 |             0 |             0 % |             0 |              0 |
|----------------------------------------------------|---------------|-----------------|---------------|----------------|
|                                                    |             0 |             0 % |             0 |              0 |
 -----------------------------------------------------------------------------------------------------------------------
 DETERMINISTIC_MODE? : NO 
 CONTROL POLICY?	 : STATIC (fixed Limit Export Clauses)  
 LIMIT EXPORT CLAUSES (PAIRWISE) : [identity] x 50

  ----------------------------------------         
   winner:  more statistics           
  ----------------------------------------         
  restarts              : 1
  conflicts             : 0              (0 /sec)
  decisions             : 11             (0.00 % random) (120 /sec)
  propagations          : 600            (6521 /sec)
  conflict literals     : 0              (-nan % deleted)
  Memory used           : 1007.00 MB
  CPU time              : 0.092005 s

SATISFIABLE
WARNING: for repeatability, setting FPU to use double precision
 -----------------------------------------------------------------------------------------------------------------------
|                                 manysat2.0    8 thread(s) on 8 core(s)                                                |
 -----------------------------------------------------------------------------------------------------------------------
 ===============================================[ Problem Statistics ]==================================================
|                                                                                                                       |
|  Number of cores:                 8                                                                                   |
|  Number of variables:           600                                                                                   |
|  Number of clauses:           27224                                                                                   |
|  Parse time:                   0.06 s                                                                                 |
|                                                                                                                       |
 ==============================================[ Search Statistics ]====================================================
|   Thread  | Conflicts |          ORIGINAL         |          LEARNT          |  exported  / imported      |  Progress |
|    (id)   |           |    Vars  Clauses Literals |    Limit  Clauses Lit/Cl |  (clauses by restart)      |           |
 =======================================================================================================================
 =======================================================================================================================
 -----------------------------------------------------------------------------------------------------------------------
| ManySAT 2.2 - all threads statistics           DETERMINISTIC MODE ? N              initial limit export clauses : 100 |
|-----------------------------------------------------------------------------------------------------------------------|
|  Thread  | winner  |   #restarts   |   decisions   |  #conflicts   |   % shared cls  |  #extra units | #extra clauses |         
|----------|---------|---------------|---------------|---------------|-----------------|---------------|----------------|
|        0 |       x |             1 |            11 |             0 |             0 % |             0 |              0 |
|        1 |         |             1 |            16 |             0 |             0 % |             0 |              0 |
|        2 |         |             1 |            16 |             0 |             0 % |             0 |              0 |
|        3 |         |             1 |            17 |             0 |             0 % |             0 |              0 |
|        4 |         |             1 |            12 |             0 |             0 % |             0 |              0 |
|        5 |         |             1 |            15 |             0 |             0 % |             0 |              0 |
|        6 |         |             1 |            18 |             0 |             0 % |             0 |              0 |
|        7 |         |             1 |            14 |             0 |             0 % |             0 |              0 |
|----------------------------------------------------|---------------|-----------------|---------------|----------------|
|                                                    |             0 |             0 % |             0 |              0 |
 -----------------------------------------------------------------------------------------------------------------------
 DETERMINISTIC_MODE? : NO 
 CONTROL POLICY?	 : STATIC (fixed Limit Export Clauses)  
 LIMIT EXPORT CLAUSES (PAIRWISE) : [identity] x 100

  ----------------------------------------         
   winner:  more statistics           
  ----------------------------------------         
  restarts              : 1
  conflicts             : 0              (0 /sec)
  decisions             : 11             (0.00 % random) (120 /sec)
  propagations          : 600            (6521 /sec)
  conflict literals     : 0              (-nan % deleted)
  Memory used           : 1011.00 MB
  CPU time              : 0.092005 s

SATISFIABLE
